100
128
50
8
5
4
9
1
18
31
2
8
5
62
9
21
9
9
9
37
3
33
7
9
19
32
28
11
4
8
17
10
61
54
7
33
52
10
20
5
51
4
42
63
1
40
24
35
55
61
51
37
36
50
31
51
5
63
47
54
53
55
11
60
13
52
1
46
12
5
63
64
50
46
43
64
3
44
19
21
50
2
40
61
30
46
2
50
3
37
2
26
32
57
23
34
34
37
4
32
56
34